c FILE			: s6.gr
c No. of vertices	: 64
c No. of directed edges	: 409
c Max. weight		: 64
c Min. weight		: 0
c A directed arc from u to v of weight w
c is represented below as ' a  u  v  w '
p sp 64 409
a 1 7 51
a 1 7 2
a 1 7 0
a 1 50 19
a 1 50 15
a 1 15 39
a 2 56 48
a 2 56 31
a 2 56 59
a 2 42 40
a 2 42 2
a 2 25 15
a 3 25 61
a 3 25 59
a 3 32 54
a 3 32 33
a 3 32 63
a 3 30 57
a 3 30 20
a 3 30 2
a 3 33 5
a 3 33 16
a 3 64 20
a 3 64 37
a 4 21 50
a 5 15 16
a 5 15 50
a 5 22 26
a 5 22 25
a 5 10 37
a 5 10 6
a 5 10 25
a 5 39 16
a 5 39 4
a 6 37 9
a 6 37 21
a 6 37 29
a 6 60 0
a 6 60 38
a 6 60 13
a 6 50 0
a 7 1 6
a 7 1 62
a 7 52 16
a 7 52 37
a 7 21 54
a 8 58 53
a 8 58 11
a 8 58 8
a 8 43 58
a 8 43 46
a 8 43 11
a 9 53 46
a 9 53 26
a 9 47 19
a 10 15 29
a 10 15 31
a 10 15 11
a 10 5 54
a 10 5 9
a 10 22 57
a 10 22 17
a 10 39 17
a 10 39 46
a 10 37 2
a 11 48 20
a 11 17 18
a 12 39 45
a 12 39 10
a 12 55 33
a 12 55 40
a 12 54 41
a 12 54 18
a 12 2 2
a 13 62 36
a 13 62 21
a 13 33 21
a 13 33 48
a 13 36 33
a 13 36 29
a 13 36 5
a 13 38 26
a 13 38 25
a 14 21 14
a 14 21 19
a 14 40 10
a 15 5 38
a 15 5 8
a 15 22 56
a 15 22 13
a 15 10 43
a 15 10 33
a 16 23 34
a 16 23 30
a 16 59 43
a 16 17 2
a 17 5 17
a 17 5 47
a 18 29 4
a 18 29 61
a 18 29 14
a 18 19 9
a 18 19 24
a 18 44 8
a 18 44 15
a 19 29 0
a 19 29 29
a 19 18 11
a 19 18 41
a 19 44 59
a 19 44 6
a 19 48 31
a 19 48 5
a 19 2 19
a 20 40 11
a 20 40 12
a 20 40 6
a 20 51 42
a 20 51 61
a 20 51 29
a 20 24 55
a 21 14 34
a 21 14 5
a 21 40 40
a 21 32 49
a 22 15 23
a 22 15 10
a 22 10 42
a 22 10 55
a 22 10 9
a 22 12 14
a 23 48 35
a 23 48 58
a 23 16 54
a 23 16 47
a 23 35 36
a 24 61 8
a 24 61 25
a 24 61 34
a 24 35 36
a 24 35 24
a 24 35 25
a 25 32 63
a 25 32 12
a 25 32 48
a 25 30 54
a 25 30 63
a 25 3 61
a 25 3 17
a 25 3 13
a 26 27 33
a 26 4 16
a 27 57 23
a 27 57 61
a 27 57 26
a 27 49 5
a 27 49 40
a 27 49 33
a 27 21 8
a 28 64 42
a 28 64 34
a 28 64 32
a 28 46 52
a 28 46 21
a 28 46 3
a 28 38 0
a 28 38 61
a 28 53 30
a 28 53 18
a 28 47 23
a 29 18 34
a 29 18 7
a 29 18 61
a 29 44 22
a 29 44 31
a 29 23 10
a 29 23 48
a 29 63 47
a 29 40 4
a 30 32 34
a 30 32 17
a 30 32 52
a 30 3 10
a 30 3 40
a 30 13 48
a 30 13 34
a 30 45 1
a 31 59 55
a 31 59 15
a 31 59 32
a 31 63 2
a 31 63 7
a 31 63 31
a 31 34 62
a 31 34 23
a 31 1 42
a 32 25 35
a 32 25 28
a 32 30 37
a 32 30 38
a 32 3 43
a 32 3 18
a 32 3 33
a 32 13 11
a 32 46 27
a 33 62 12
a 33 62 11
a 33 13 35
a 33 13 27
a 33 36 11
a 33 36 22
a 33 36 20
a 34 31 21
a 34 31 5
a 34 59 40
a 34 59 31
a 34 63 7
a 34 63 6
a 34 7 59
a 34 7 15
a 34 52 17
a 35 24 3
a 35 24 9
a 35 61 28
a 35 61 41
a 36 33 31
a 36 33 41
a 36 33 33
a 36 13 21
a 36 13 29
a 36 46 54
a 36 46 58
a 36 53 17
a 37 6 17
a 37 6 8
a 37 60 8
a 37 60 49
a 37 60 1
a 37 29 4
a 37 19 12
a 38 64 49
a 38 64 2
a 38 46 42
a 38 46 18
a 38 46 33
a 38 28 2
a 38 28 7
a 38 28 11
a 39 12 40
a 39 12 6
a 39 12 2
a 39 55 18
a 39 55 40
a 39 55 30
a 39 54 57
a 39 54 45
a 39 27 52
a 40 20 63
a 40 20 16
a 40 20 33
a 40 51 51
a 40 51 17
a 40 51 53
a 40 61 10
a 40 62 51
a 40 38 14
a 41 57 1
a 41 57 34
a 41 14 27
a 42 41 33
a 42 41 53
a 42 49 17
a 42 49 60
a 43 8 53
a 43 8 26
a 43 20 20
a 43 20 56
a 43 62 52
a 44 29 55
a 44 29 9
a 44 29 52
a 44 18 40
a 44 18 31
a 44 18 62
a 44 19 58
a 44 19 21
a 44 23 8
a 44 23 24
a 45 48 14
a 45 48 49
a 45 31 32
a 46 64 46
a 46 64 52
a 46 28 39
a 46 28 6
a 46 38 43
a 46 38 46
a 46 38 42
a 47 11 12
a 47 11 14
a 47 37 32
a 47 29 47
a 48 16 61
a 48 16 2
a 48 31 60
a 48 31 56
a 48 63 26
a 48 54 48
a 49 27 35
a 49 27 22
a 49 27 41
a 49 57 37
a 49 57 60
a 49 57 1
a 49 14 2
a 49 14 28
a 50 52 55
a 50 52 14
a 50 17 25
a 50 17 44
a 51 61 35
a 51 32 37
a 51 62 62
a 51 12 7
a 51 12 16
a 52 50 57
a 52 50 58
a 52 15 62
a 52 22 7
a 52 22 55
a 53 9 5
a 53 9 2
a 53 11 0
a 53 6 42
a 54 12 51
a 54 12 38
a 54 39 5
a 54 39 58
a 54 39 51
a 54 41 44
a 54 4 6
a 54 4 63
a 55 12 17
a 55 12 9
a 55 12 2
a 55 39 62
a 55 39 7
a 55 54 30
a 55 54 26
a 55 2 23
a 56 2 56
a 56 2 21
a 56 26 0
a 56 26 38
a 57 49 61
a 57 49 18
a 57 49 12
a 57 4 28
a 57 4 30
a 57 4 8
a 57 24 63
a 58 8 39
a 58 8 57
a 58 43 20
a 58 43 17
a 58 40 54
a 58 40 59
a 58 40 36
a 58 32 46
a 59 31 21
a 59 31 58
a 59 34 8
a 59 34 62
a 59 50 2
a 59 5 61
a 60 6 62
a 60 6 39
a 60 18 38
a 60 16 50
a 60 16 32
a 61 24 51
a 61 24 55
a 61 35 22
a 61 35 59
a 61 35 41
a 61 25 1
a 61 25 28
a 61 30 32
a 62 13 46
a 62 13 3
a 62 13 39
a 62 36 26
a 62 36 33
a 62 36 50
a 63 31 49
a 63 31 62
a 63 59 26
a 63 59 6
a 63 34 8
a 63 34 48
a 63 34 61
a 63 1 8
a 63 1 29
a 63 1 51
a 63 5 45
a 64 28 45
a 64 28 53
a 64 28 1
a 64 9 4
